(declare-fun bvlambda_3_ () (_ BitVec 1))
(declare-fun bvlambda_4_ () (_ BitVec 3))
(declare-fun bvlambda_20_ () (_ BitVec 1))
(declare-fun bvlambda_23_ () (_ BitVec 9))
(declare-fun bvlambda_24_ () (_ BitVec 1))
(declare-fun bvlambda_25_ () (_ BitVec 1))
(declare-fun bvlambda_26_ () (_ BitVec 1))
(declare-fun bvlambda_27_ () (_ BitVec 1))
(declare-fun bvlambda_28_ () (_ BitVec 4))
(declare-fun bvlambda_29_ () (_ BitVec 1))
(declare-fun bvlambda_30_ () (_ BitVec 2))
(declare-fun bvlambda_31_ () (_ BitVec 1))
(declare-fun a92 () (Array (_ BitVec 1) (_ BitVec 12)))
(assert
(let (($e1 (_ bv0 1)))
(let (($e5 (_ bv476 9)))
(let (($e13 (_ bv0 11)))
(let (($e18 (_ bv0 12)))
(let (($e21 (_ bv0 3)))
(let (($e22 (_ bv4 12)))
(let (($e23 (_ bv0 8)))
(let (($e100 (concat        $e23  bvlambda_3_)))
(let (($e101 (concat $e100 bvlambda_4_)))
(let (($e102                          $e101      ))
(let (($e105                      bvlambda_20_ ))
(let (($e106         $e105              ))
(let (($e107                           $e106       ))
(let (($e109                   $e107  ))
(let (($e110               $e109                ))
(let (($e111                  $e110 ))
(let (($e112 (store a92 $e111 $e102)))
(let (($e113 (select $e112 $e1)))
(let (($e226 (select $e112 (bvnot $e1))))
(let (($e227 (   extract      $e226)))
(let (($e228 (concat bvlambda_23_ bvlambda_24_)))
(let (($e229 (concat $e228 bvlambda_25_)))
(let (($e230 (concat $e229 bvlambda_26_)))
(let (($e231        a92                   ))
(let (($e232 (store $e231 $e1 $e230)))
(let (($e233 (select $e232 $e227)))
(let (($e287                              #b0 ))
(let (($e288 (concat        $e287         $e287 )))
(let (($e289 (concat $e288        $e287 )))
(let (($e290 (concat $e289        $e287 )))
(let (($e291 (concat $e290        $e287 )))
(let (($e292 (concat $e291        $e287 )))
(let (($e293 (concat $e292        $e287 )))
(let (($e294 (concat $e293        $e287 )))
(let (($e295 (concat $e294        $e287 )))
(let (($e296 (concat $e295        $e287 )))
(let (($e297 (concat $e296        $e287 )))
(let (($e298 (concat $e297        $e287 )))
(let (($e299 (concat $e298        $e287 )))
(let (($e300 (concat $e299        $e287 )))
(let (($e301 (concat $e300        $e287 )))
(let (($e302 (concat $e301 (bvnot $e287))))
(let (($e304 (concat $e21 bvlambda_27_)))
(let (($e305 (concat $e304 bvlambda_28_)))
(let (($e306 (concat $e305 bvlambda_29_)))
(let (($e307 (concat $e306 bvlambda_30_)))
(let (($e308 (concat $e307 bvlambda_31_)))
(let (($e309             $e308 ))
(let (($e310      (bvult $e309 $e113)         ))
(let (($e311 (concat (bvnot $e23)        $e310 )))
(let (($e312 (concat $e23        $e310 )))
(let (($e313 (ite        $e310  $e312 $e311)))
(let (($e314      (= $e5 $e313)         ))
(let (($e315 (concat $e18        $e314 )))
(let (($e316        $e315       ))
(let (($e318 (concat        $e21  $e316)))
(let (($e320                    $e318       ))
(let (($e321      (bvult $e320 $e302)         ))
(let (($e322        (bvnot $e321)       ))
(let (($e323         $e322                ))
(let (($e324      (bvult $e22 $e233)         ))
(let (($e329                             $e324  ))
(let (($e335                             $e329  ))
(let (($e350               $e335          ))
(let (($e351 (bvand $e350 (bvnot $e323))))
(let (($e355 (   extract        $e309)))
(let (($e356               $e355        ))
(let (($e357 (concat $e13        $e356 )))
(let (($e358      (bvult $e113 $e357)         ))
(let (($e359 (bvand $e358        $e351 )))
(let (($e367              $e359 ))
                    (bvnot $e367)
                                                                                                                                                                                                                                                                                                                                                                                                                                                                                                                                                                                                                                                                                                                                                                                                                                                                                              )       )))))   ))              )     )    ))))) ) ))))))))))))) ))))))))))))))))                                                     ))))))))                                                                                                                ))))) )))  )))                                            )))  )    )       )   ))
